<number of tasks>
50

<cycle time>
1000

<order strength>
0.596


<task times>
1 99
2 141
3 171
4 39
5 67
6 235
7 215
8 216
9 95
10 117
11 161
12 292
13 166
14 204
15 163
16 45
17 76
18 28
19 183
20 93
21 24
22 21
23 55
24 152
25 254
26 346
27 76
28 85
29 162
30 63
31 197
32 72
33 113
34 87
35 141
36 101
37 131
38 240
39 60
40 47
41 89
42 203
43 31
44 67
45 74
46 284
47 38
48 229
49 34
50 249

<precedence relations>
1,3
1,4
1,5
2,4
2,5
3,6
4,7
4,8
5,7
5,8
6,10
7,9
7,10
7,11
7,12
8,10
8,11
8,12
9,14
10,13
10,15
10,16
10,17
10,18
10,19
11,16
11,17
11,18
11,19
12,16
12,17
12,18
13,20
14,22
15,21
16,22
16,23
16,24
17,23
17,24
17,25
18,22
18,24
18,25
19,23
19,25
20,27
21,26
22,29
23,27
23,28
23,29
23,36
24,30
25,27
25,30
26,31
27,33
27,35
28,32
28,33
28,34
29,33
29,35
30,35
30,36
31,37
32,39
33,38
33,40
33,41
33,50
34,49
35,41
35,50
36,41
36,46
37,43
38,44
39,46
40,45
41,42
42,47
43,48
44,49
45,49
46,49
46,50

<end>
